(set-info :smt-lib-version 2.6)
(set-logic LIA)
(set-info
  :source |
 Generated by PSyCO 0.1
 More info in N. P. Lopes and J. Monteiro. Weakest Precondition Synthesis for
 Compiler Optimizations, VMCAI'14.
|)
(set-info :category "industrial")
(set-info :status sat)
(declare-fun R_E1_V4 () Bool)
(declare-fun W_S1_V4 () Bool)
(declare-fun R_E1_V5 () Bool)
(declare-fun W_S1_V5 () Bool)
(declare-fun W_S2_V5 () Bool)
(declare-fun W_S2_V2 () Bool)
(declare-fun W_S2_V3 () Bool)
(declare-fun W_S2_V1 () Bool)
(declare-fun R_S2_V4 () Bool)
(declare-fun R_S2_V5 () Bool)
(declare-fun R_S2_V2 () Bool)
(declare-fun R_S2_V3 () Bool)
(declare-fun R_S2_V1 () Bool)
(declare-fun R_S1_V4 () Bool)
(declare-fun R_S1_V5 () Bool)
(declare-fun R_S1_V2 () Bool)
(declare-fun R_S1_V3 () Bool)
(declare-fun R_S1_V1 () Bool)
(declare-fun R_E1_V2 () Bool)
(declare-fun DISJ_W_S2_R_E1 () Bool)
(declare-fun DISJ_W_S2_R_S2 () Bool)
(declare-fun DISJ_W_S2_R_S1 () Bool)
(declare-fun DISJ_W_S1_W_S2 () Bool)
(declare-fun R_E1_V3 () Bool)
(declare-fun DISJ_W_S1_R_S2 () Bool)
(declare-fun DISJ_W_S1_R_S1 () Bool)
(declare-fun W_S2_V4 () Bool)
(declare-fun W_S1_V3 () Bool)
(declare-fun W_S1_V2 () Bool)
(declare-fun W_S1_V1 () Bool)
(declare-fun R_E1_V1 () Bool)
(declare-fun DISJ_W_S1_R_E1 () Bool)
(assert
 (let (($x51 (and W_S1_V4 R_E1_V4)))
 (let (($x3006 (not $x51)))
 (let (($x49 (and W_S1_V5 R_E1_V5)))
 (let (($x3418 (not $x49)))
 (let
 (($x3432
   (forall
    ((V3_0 Int) (V2_0 Int) 
     (V5_0 Int) (V4_0 Int) 
     (MW_S1_V1 Bool) (MW_S1_V3 Bool) 
     (MW_S1_V2 Bool) (MW_S1_V5 Bool) 
     (MW_S1_V4 Bool) (MW_S2_V1 Bool) 
     (MW_S2_V3 Bool) (MW_S2_V2 Bool) 
     (MW_S2_V5 Bool) (MW_S2_V4 Bool) 
     (S1_V1_!2447 Int) (S1_V1_!2464 Int) 
     (S1_V1_!2474 Int) (S2_V5_!2456 Int) 
     (S2_V5_!2461 Int) (S2_V5_!2472 Int) 
     (S2_V5_!2482 Int) (S1_V3_!2448 Int) 
     (S1_V3_!2465 Int) (S1_V3_!2475 Int) 
     (S1_V2_!2449 Int) (S1_V2_!2466 Int) 
     (S1_V2_!2476 Int) (E1_!2446 Int) 
     (E1_!2452 Int) (E1_!2463 Int) 
     (S2_V4_!2457 Int) (S2_V4_!2462 Int) 
     (S2_V4_!2473 Int) (S2_V4_!2483 Int) 
     (S1_V5_!2450 Int) (S1_V5_!2467 Int) 
     (S1_V5_!2477 Int) (S2_V1_!2453 Int) 
     (S2_V1_!2458 Int) (S2_V1_!2469 Int) 
     (S2_V1_!2479 Int) (S1_V4_!2451 Int) 
     (S1_V4_!2468 Int) (S1_V4_!2478 Int) 
     (S2_V2_!2455 Int) (S2_V2_!2460 Int) 
     (S2_V2_!2471 Int) (S2_V2_!2481 Int) 
     (S2_V3_!2454 Int) (S2_V3_!2459 Int) 
     (S2_V3_!2470 Int) (S2_V3_!2480 Int))
    (let ((?x2872 (ite MW_S1_V4 S1_V4_!2468 V4_0)))
    (let ((?x2588 (ite MW_S2_V4 S2_V4_!2473 ?x2872)))
    (let ((?x2488 (ite MW_S1_V4 S1_V4_!2478 ?x2588)))
    (let ((?x2668 (ite MW_S2_V4 S2_V4_!2483 ?x2488)))
    (let ((?x3043 (ite MW_S1_V4 S1_V4_!2451 V4_0)))
    (let ((?x3111 (ite MW_S2_V4 S2_V4_!2462 ?x3043)))
    (let (($x3002 (= ?x3111 ?x2668)))
    (let ((?x2789 (ite MW_S1_V5 S1_V5_!2467 V5_0)))
    (let ((?x2967 (ite MW_S2_V5 S2_V5_!2472 ?x2789)))
    (let ((?x3086 (ite MW_S1_V5 S1_V5_!2477 ?x2967)))
    (let ((?x3195 (ite MW_S2_V5 S2_V5_!2482 ?x3086)))
    (let ((?x3131 (ite MW_S1_V5 S1_V5_!2450 V5_0)))
    (let ((?x2958 (ite MW_S2_V5 S2_V5_!2461 ?x3131)))
    (let (($x2713 (= ?x2958 ?x3195)))
    (let ((?x2948 (ite MW_S1_V2 S1_V2_!2466 V2_0)))
    (let ((?x3388 (ite MW_S2_V2 S2_V2_!2471 ?x2948)))
    (let ((?x3300 (ite MW_S1_V2 S1_V2_!2476 ?x3388)))
    (let ((?x2704 (ite MW_S2_V2 S2_V2_!2481 ?x3300)))
    (let ((?x2857 (ite MW_S1_V2 S1_V2_!2449 V2_0)))
    (let ((?x2553 (ite MW_S2_V2 S2_V2_!2460 ?x2857)))
    (let (($x2527 (= ?x2553 ?x2704)))
    (let ((?x2700 (ite MW_S1_V3 S1_V3_!2465 V3_0)))
    (let ((?x2989 (ite MW_S2_V3 S2_V3_!2470 ?x2700)))
    (let ((?x2722 (ite MW_S1_V3 S1_V3_!2475 ?x2989)))
    (let ((?x2754 (ite MW_S2_V3 S2_V3_!2480 ?x2722)))
    (let ((?x2851 (ite MW_S1_V3 S1_V3_!2448 V3_0)))
    (let ((?x2900 (ite MW_S2_V3 S2_V3_!2459 ?x2851)))
    (let (($x2880 (= ?x2900 ?x2754)))
    (let ((?x3143 (ite MW_S1_V1 S1_V1_!2464 E1_!2463)))
    (let ((?x2728 (ite MW_S2_V1 S2_V1_!2469 ?x3143)))
    (let ((?x3112 (+ 1 ?x2728)))
    (let ((?x2839 (ite MW_S1_V1 S1_V1_!2474 ?x3112)))
    (let ((?x3336 (ite MW_S2_V1 S2_V1_!2479 ?x2839)))
    (let ((?x3089 (ite MW_S2_V1 S2_V1_!2453 E1_!2452)))
    (let ((?x2757 (+ 1 ?x3089)))
    (let ((?x2638 (ite MW_S2_V1 S2_V1_!2458 ?x2757)))
    (let (($x3407 (= ?x2638 ?x3336)))
    (let (($x3038 (and $x3407 $x2880 $x2527 $x2713 $x3002)))
    (let ((?x2771 (+ (- 1) ?x2704)))
    (let (($x2998 (>= ?x3336 ?x2771)))
    (let (($x3282 (<= ?x3388 ?x3112)))
    (let (($x3428 (not $x3282)))
    (let (($x2475 (<= V2_0 E1_!2463)))
    (let (($x3164 (not $x2475)))
    (let ((?x2759 (+ (- 1) ?x2553)))
    (let (($x2684 (>= ?x2638 ?x2759)))
    (let ((?x3134 (ite MW_S2_V2 S2_V2_!2455 ?x2857)))
    (let (($x2461 (<= ?x3134 ?x2757)))
    (let (($x3505 (not $x2461)))
    (let (($x2985 (<= ?x2857 E1_!2452)))
    (let (($x2482 (not $x2985)))
    (let ((?x3334 (+ (- 1) ?x2857)))
    (let ((?x2801 (ite MW_S1_V1 S1_V1_!2447 E1_!2446)))
    (let (($x3399 (>= ?x2801 ?x3334)))
    (let (($x3018 (<= V2_0 E1_!2446)))
    (let (($x2991 (not $x3018)))
    (let
    (($x2689 (and $x2991 $x3399 $x2482 $x3505 $x2684 $x3164 $x3428 $x2998)))
    (let (($x2830 (not $x2689)))
    (let (($x3327 (not MW_S2_V5)))
    (let (($x2516 (or $x3327 W_S2_V5)))
    (let (($x2612 (not MW_S2_V2)))
    (let (($x2925 (or $x2612 W_S2_V2)))
    (let (($x3285 (not MW_S2_V3)))
    (let (($x3085 (or $x3285 W_S2_V3)))
    (let (($x2821 (not MW_S2_V1)))
    (let (($x2447 (or $x2821 W_S2_V1)))
    (let (($x2802 (not MW_S1_V4)))
    (let (($x3315 (or $x2802 W_S1_V4)))
    (let (($x2957 (not MW_S1_V5)))
    (let (($x2299 (or $x2957 W_S1_V5)))
    (let (($x2895 (not MW_S1_V2)))
    (let (($x2922 (not MW_S1_V1)))
    (let (($x2673 (= S2_V3_!2480 S2_V3_!2470)))
    (let (($x2465 (= ?x2488 ?x2872)))
    (let (($x407 (not R_S2_V4)))
    (let (($x2670 (or $x407 $x2465)))
    (let (($x3405 (= ?x3086 ?x2789)))
    (let (($x405 (not R_S2_V5)))
    (let (($x3240 (or $x405 $x3405)))
    (let (($x3370 (= ?x3300 ?x2948)))
    (let (($x403 (not R_S2_V2)))
    (let (($x2533 (or $x403 $x3370)))
    (let (($x3498 (= ?x2722 ?x2700)))
    (let (($x401 (not R_S2_V3)))
    (let (($x2844 (or $x401 $x3498)))
    (let (($x3214 (= ?x2839 ?x3143)))
    (let (($x398 (not R_S2_V1)))
    (let (($x3823 (or $x398 $x3214)))
    (let (($x3852 (and $x3823 $x2844 $x2533 $x3240 $x2670)))
    (let (($x3851 (not $x3852)))
    (let (($x3445 (or $x3851 $x2673)))
    (let (($x2815 (= S2_V3_!2480 S2_V3_!2459)))
    (let ((?x3016 (ite MW_S2_V4 S2_V4_!2457 ?x3043)))
    (let (($x3353 (= ?x2488 ?x3016)))
    (let (($x3097 (or $x407 $x3353)))
    (let ((?x2537 (ite MW_S2_V5 S2_V5_!2456 ?x3131)))
    (let (($x2736 (= ?x3086 ?x2537)))
    (let (($x3372 (or $x405 $x2736)))
    (let (($x3381 (= ?x3300 ?x3134)))
    (let (($x3449 (or $x403 $x3381)))
    (let ((?x3138 (ite MW_S2_V3 S2_V3_!2454 ?x2851)))
    (let (($x2680 (= ?x2722 ?x3138)))
    (let (($x3339 (or $x401 $x2680)))
    (let (($x3531 (= ?x2839 ?x2757)))
    (let (($x2842 (or $x398 $x3531)))
    (let (($x4029 (and $x2842 $x3339 $x3449 $x3372 $x3097)))
    (let (($x3721 (not $x4029)))
    (let (($x3420 (or $x3721 $x2815)))
    (let (($x2775 (= S2_V3_!2470 S2_V3_!2459)))
    (let (($x3092 (= ?x2872 ?x3016)))
    (let (($x2639 (or $x407 $x3092)))
    (let (($x2615 (= ?x2789 ?x2537)))
    (let (($x2289 (or $x405 $x2615)))
    (let (($x2891 (= ?x2948 ?x3134)))
    (let (($x2643 (or $x403 $x2891)))
    (let (($x2743 (= ?x2700 ?x3138)))
    (let (($x2814 (or $x401 $x2743)))
    (let (($x3253 (= ?x3143 ?x2757)))
    (let (($x2868 (or $x398 $x3253)))
    (let (($x2439 (and $x2868 $x2814 $x2643 $x2289 $x2639)))
    (let (($x3268 (not $x2439)))
    (let (($x2456 (or $x3268 $x2775)))
    (let (($x3295 (= S2_V3_!2454 S2_V3_!2480)))
    (let (($x3007 (= ?x3043 ?x2488)))
    (let (($x2824 (or $x407 $x3007)))
    (let (($x2812 (= ?x3131 ?x3086)))
    (let (($x2586 (or $x405 $x2812)))
    (let (($x3913 (= ?x2857 ?x3300)))
    (let (($x2563 (or $x403 $x3913)))
    (let (($x3269 (= ?x2851 ?x2722)))
    (let (($x4011 (or $x401 $x3269)))
    (let (($x3266 (= E1_!2452 ?x2839)))
    (let (($x3168 (or $x398 $x3266)))
    (let (($x2744 (and $x3168 $x4011 $x2563 $x2586 $x2824)))
    (let (($x3191 (not $x2744)))
    (let (($x2805 (or $x3191 $x3295)))
    (let (($x3040 (= S2_V3_!2454 S2_V3_!2470)))
    (let (($x3013 (= ?x3043 ?x2872)))
    (let (($x3224 (or $x407 $x3013)))
    (let (($x3688 (= ?x3131 ?x2789)))
    (let (($x2610 (or $x405 $x3688)))
    (let (($x3402 (= ?x2857 ?x2948)))
    (let (($x3033 (or $x403 $x3402)))
    (let (($x2988 (= ?x2851 ?x2700)))
    (let (($x3000 (or $x401 $x2988)))
    (let (($x3527 (= E1_!2452 ?x3143)))
    (let (($x3553 (or $x398 $x3527)))
    (let (($x3674 (and $x3553 $x3000 $x3033 $x2610 $x3224)))
    (let (($x3678 (not $x3674)))
    (let (($x2911 (or $x3678 $x3040)))
    (let (($x3478 (= S2_V3_!2454 S2_V3_!2459)))
    (let (($x3734 (= ?x3043 ?x3016)))
    (let (($x3705 (or $x407 $x3734)))
    (let (($x3084 (= ?x3131 ?x2537)))
    (let (($x3221 (or $x405 $x3084)))
    (let (($x3455 (= ?x2857 ?x3134)))
    (let (($x3906 (or $x403 $x3455)))
    (let (($x3539 (= ?x2851 ?x3138)))
    (let (($x3557 (or $x401 $x3539)))
    (let (($x3226 (= E1_!2452 ?x2757)))
    (let (($x3608 (or $x398 $x3226)))
    (let (($x2729 (and $x3608 $x3557 $x3906 $x3221 $x3705)))
    (let (($x2507 (not $x2729)))
    (let (($x3012 (or $x2507 $x3478)))
    (let (($x2936 (= S2_V2_!2481 S2_V2_!2460)))
    (let (($x3434 (or $x3721 $x2936)))
    (let (($x4101 (= S2_V2_!2481 S2_V2_!2455)))
    (let (($x3772 (= ?x2488 ?x3043)))
    (let (($x2640 (or $x407 $x3772)))
    (let (($x3975 (= ?x3086 ?x3131)))
    (let (($x3802 (or $x405 $x3975)))
    (let (($x3228 (= ?x3300 ?x2857)))
    (let (($x3331 (or $x403 $x3228)))
    (let (($x3486 (= ?x2722 ?x2851)))
    (let (($x4146 (or $x401 $x3486)))
    (let (($x2772 (= ?x2839 E1_!2452)))
    (let (($x2767 (or $x398 $x2772)))
    (let (($x3264 (and $x2767 $x4146 $x3331 $x3802 $x2640)))
    (let (($x3422 (not $x3264)))
    (let (($x3283 (or $x3422 $x4101)))
    (let (($x3798 (= S2_V2_!2471 S2_V2_!2481)))
    (let (($x4052 (= ?x2872 ?x2488)))
    (let (($x3573 (or $x407 $x4052)))
    (let (($x2977 (= ?x2789 ?x3086)))
    (let (($x3713 (or $x405 $x2977)))
    (let (($x4102 (= ?x2948 ?x3300)))
    (let (($x3474 (or $x403 $x4102)))
    (let (($x4083 (= ?x2700 ?x2722)))
    (let (($x3356 (or $x401 $x4083)))
    (let (($x3026 (= ?x3143 ?x2839)))
    (let (($x3218 (or $x398 $x3026)))
    (let (($x2571 (and $x3218 $x3356 $x3474 $x3713 $x3573)))
    (let (($x3199 (not $x2571)))
    (let (($x3303 (or $x3199 $x3798)))
    (let (($x2873 (= S2_V2_!2471 S2_V2_!2460)))
    (let (($x2974 (or $x3268 $x2873)))
    (let (($x2971 (= S2_V2_!2471 S2_V2_!2455)))
    (let (($x2879 (= ?x2872 ?x3043)))
    (let (($x3137 (or $x407 $x2879)))
    (let (($x3886 (= ?x2789 ?x3131)))
    (let (($x2714 (or $x405 $x3886)))
    (let (($x3104 (= ?x2948 ?x2857)))
    (let (($x2758 (or $x403 $x3104)))
    (let (($x2715 (= ?x2700 ?x2851)))
    (let (($x2865 (or $x401 $x2715)))
    (let (($x2956 (= ?x3143 E1_!2452)))
    (let (($x3176 (or $x398 $x2956)))
    (let (($x3363 (and $x3176 $x2865 $x2758 $x2714 $x3137)))
    (let (($x2659 (not $x3363)))
    (let (($x2829 (or $x2659 $x2971)))
    (let (($x2717 (= S2_V2_!2455 S2_V2_!2460)))
    (let (($x2589 (or $x2507 $x2717)))
    (let (($x2430 (= S1_V4_!2478 S1_V4_!2451)))
    (let (($x3136 (= ?x2588 V4_0)))
    (let (($x206 (not R_S1_V4)))
    (let (($x3378 (or $x206 $x3136)))
    (let (($x2549 (= ?x2967 V5_0)))
    (let (($x204 (not R_S1_V5)))
    (let (($x2631 (or $x204 $x2549)))
    (let (($x3157 (= ?x3388 V2_0)))
    (let (($x202 (not R_S1_V2)))
    (let (($x2444 (or $x202 $x3157)))
    (let (($x2556 (= ?x2989 V3_0)))
    (let (($x200 (not R_S1_V3)))
    (let (($x3512 (or $x200 $x2556)))
    (let ((?x3079 (+ (- 1) E1_!2446)))
    (let (($x2650 (= ?x2728 ?x3079)))
    (let (($x198 (not R_S1_V1)))
    (let (($x3328 (or $x198 $x2650)))
    (let (($x3054 (and $x3328 $x3512 $x2444 $x2631 $x3378)))
    (let (($x2831 (not $x3054)))
    (let (($x2935 (or $x2831 $x2430)))
    (let (($x3301 (= S1_V4_!2468 S1_V4_!2478)))
    (let (($x3470 (= V4_0 ?x2588)))
    (let (($x2697 (or $x206 $x3470)))
    (let (($x2811 (= V5_0 ?x2967)))
    (let (($x2836 (or $x204 $x2811)))
    (let (($x2876 (= V2_0 ?x3388)))
    (let (($x2532 (or $x202 $x2876)))
    (let (($x3261 (= V3_0 ?x2989)))
    (let (($x2649 (or $x200 $x3261)))
    (let (($x3046 (= E1_!2463 ?x3112)))
    (let (($x2724 (or $x198 $x3046)))
    (let (($x3193 (and $x2724 $x2649 $x2532 $x2836 $x2697)))
    (let (($x2923 (not $x3193)))
    (let (($x2619 (or $x2923 $x3301)))
    (let (($x2703 (= S1_V4_!2468 S1_V4_!2451)))
    (let (($x2792 (= E1_!2463 E1_!2446)))
    (let (($x3180 (or $x198 $x2792)))
    (let (($x2732 (not $x3180)))
    (let (($x3409 (or $x2732 $x2703)))
    (let (($x2804 (= S2_V1_!2469 S2_V1_!2479)))
    (let (($x2512 (or $x3199 $x2804)))
    (let (($x3169 (= S2_V1_!2469 S2_V1_!2458)))
    (let (($x2551 (or $x3268 $x3169)))
    (let (($x3162 (= S2_V1_!2469 S2_V1_!2453)))
    (let (($x3289 (or $x2659 $x3162)))
    (let (($x3507 (= S2_V1_!2458 S2_V1_!2479)))
    (let (($x2483 (= ?x3016 ?x2488)))
    (let (($x3891 (or $x407 $x2483)))
    (let (($x2962 (= ?x2537 ?x3086)))
    (let (($x2691 (or $x405 $x2962)))
    (let (($x2463 (= ?x3134 ?x3300)))
    (let (($x2617 (or $x403 $x2463)))
    (let (($x3321 (= ?x3138 ?x2722)))
    (let (($x2468 (or $x401 $x3321)))
    (let ((?x2788 (+ (- 1) ?x2839)))
    (let (($x3401 (= ?x3089 ?x2788)))
    (let (($x3149 (or $x398 $x3401)))
    (let (($x2558 (and $x3149 $x2468 $x2617 $x2691 $x3891)))
    (let (($x3380 (not $x2558)))
    (let (($x2679 (or $x3380 $x3507)))
    (let (($x3181 (= S2_V1_!2453 S2_V1_!2479)))
    (let (($x3346 (or $x3191 $x3181)))
    (let (($x3895 (= S2_V1_!2453 S2_V1_!2458)))
    (let (($x2603 (or $x2507 $x3895)))
    (let (($x3342 (= S1_V5_!2477 S1_V5_!2467)))
    (let ((?x2980 (+ (- 1) E1_!2463)))
    (let (($x2852 (= ?x2728 ?x2980)))
    (let (($x2885 (or $x198 $x2852)))
    (let (($x2800 (and $x2885 $x3512 $x2444 $x2631 $x3378)))
    (let (($x3094 (not $x2800)))
    (let (($x3454 (or $x3094 $x3342)))
    (let (($x3389 (= S1_V5_!2477 S1_V5_!2450)))
    (let (($x3645 (or $x2831 $x3389)))
    (let (($x3147 (= S1_V5_!2467 S1_V5_!2450)))
    (let (($x3090 (or $x2732 $x3147)))
    (let (($x3021 (= S2_V4_!2483 S2_V4_!2473)))
    (let (($x2783 (or $x3851 $x3021)))
    (let (($x2768 (= S2_V4_!2462 S2_V4_!2483)))
    (let (($x2630 (or $x3380 $x2768)))
    (let (($x2892 (= S2_V4_!2462 S2_V4_!2473)))
    (let (($x3152 (= ?x3016 ?x2872)))
    (let (($x3166 (or $x407 $x3152)))
    (let (($x2740 (= ?x2537 ?x2789)))
    (let (($x3178 (or $x405 $x2740)))
    (let (($x3348 (= ?x3134 ?x2948)))
    (let (($x2580 (or $x403 $x3348)))
    (let (($x2293 (= ?x3138 ?x2700)))
    (let (($x2472 (or $x401 $x2293)))
    (let ((?x2716 (+ (- 1) ?x3143)))
    (let (($x3254 (= ?x3089 ?x2716)))
    (let (($x2581 (or $x398 $x3254)))
    (let (($x2460 (and $x2581 $x2472 $x2580 $x3178 $x3166)))
    (let (($x2448 (not $x2460)))
    (let (($x3396 (or $x2448 $x2892)))
    (let (($x3065 (= S2_V4_!2457 S2_V4_!2483)))
    (let (($x3682 (or $x3191 $x3065)))
    (let (($x2795 (= S2_V4_!2457 S2_V4_!2473)))
    (let (($x2499 (or $x3678 $x2795)))
    (let (($x2711 (= S2_V4_!2457 S2_V4_!2462)))
    (let (($x2660 (or $x2507 $x2711)))
    (let (($x2671 (= E1_!2452 E1_!2463)))
    (let (($x2702 (= ?x3043 V4_0)))
    (let (($x161 (not R_E1_V4)))
    (let (($x3163 (or $x161 $x2702)))
    (let (($x2976 (= ?x3131 V5_0)))
    (let (($x159 (not R_E1_V5)))
    (let (($x2848 (or $x159 $x2976)))
    (let (($x3213 (= ?x2857 V2_0)))
    (let (($x157 (not R_E1_V2)))
    (let (($x3059 (or $x157 $x3213)))
    (let (($x2934 (and $x3059 $x2848 $x3163)))
    (let (($x3158 (not $x2934)))
    (let (($x3243 (or $x3158 $x2671)))
    (let (($x3185 (= E1_!2452 E1_!2446)))
    (let (($x2750 (or $x3158 $x3185)))
    (let (($x2720 (= S1_V2_!2476 S1_V2_!2466)))
    (let (($x2920 (or $x3094 $x2720)))
    (let (($x3987 (= S1_V2_!2476 S1_V2_!2449)))
    (let (($x3392 (or $x2831 $x3987)))
    (let (($x2524 (= S1_V2_!2466 S1_V2_!2449)))
    (let (($x2913 (or $x2732 $x2524)))
    (let (($x3272 (= S1_V3_!2475 S1_V3_!2448)))
    (let (($x2748 (or $x2831 $x3272)))
    (let (($x2940 (= S1_V3_!2465 S1_V3_!2475)))
    (let (($x2856 (or $x2923 $x2940)))
    (let (($x3051 (= S1_V3_!2465 S1_V3_!2448)))
    (let (($x2709 (or $x2732 $x3051)))
    (let (($x2538 (= S2_V5_!2482 S2_V5_!2472)))
    (let (($x4017 (or $x3851 $x2538)))
    (let (($x3438 (= S2_V5_!2482 S2_V5_!2461)))
    (let (($x4086 (or $x3721 $x3438)))
    (let (($x3414 (= S2_V5_!2482 S2_V5_!2456)))
    (let (($x3879 (or $x3422 $x3414)))
    (let (($x2295 (= S2_V5_!2461 S2_V5_!2472)))
    (let (($x2477 (or $x2448 $x2295)))
    (let (($x2663 (= S2_V5_!2461 S2_V5_!2456)))
    (let (($x2623 (= ?x3016 ?x3043)))
    (let (($x3393 (or $x407 $x2623)))
    (let (($x2492 (= ?x2537 ?x3131)))
    (let (($x2451 (or $x405 $x2492)))
    (let (($x2587 (= ?x3134 ?x2857)))
    (let (($x3375 (or $x403 $x2587)))
    (let (($x2669 (= ?x3138 ?x2851)))
    (let (($x2899 (or $x401 $x2669)))
    (let ((?x2498 (+ (- 1) E1_!2452)))
    (let (($x3076 (= ?x3089 ?x2498)))
    (let (($x2579 (or $x398 $x3076)))
    (let (($x3332 (and $x2579 $x2899 $x3375 $x2451 $x3393)))
    (let (($x2535 (not $x3332)))
    (let (($x2819 (or $x2535 $x2663)))
    (let (($x3760 (= S2_V5_!2456 S2_V5_!2472)))
    (let (($x2760 (or $x3678 $x3760)))
    (let (($x2843 (= S1_V1_!2464 S1_V1_!2474)))
    (let (($x2661 (or $x2923 $x2843)))
    (let (($x3167 (= S1_V1_!2464 S1_V1_!2447)))
    (let (($x3882 (or $x2732 $x3167)))
    (let (($x4095 (= S1_V1_!2447 S1_V1_!2474)))
    (let (($x3973 (= E1_!2446 ?x3112)))
    (let (($x2614 (or $x198 $x3973)))
    (let (($x3695 (and $x2614 $x2649 $x2532 $x2836 $x2697)))
    (let (($x4031 (not $x3695)))
    (let (($x3354 (or $x4031 $x4095)))
    (let
    (($x3050
      (and $x3354 $x3882 $x2661 $x2760 $x2819 $x2477 $x3879 $x4086 $x4017
      $x2709 $x2856 $x2748 $x2913 $x3392 $x2920 $x2750 $x3243 $x2792 $x2660
      $x2499 $x3682 $x3396 $x2630 $x2783 $x3090 $x3645 $x3454 $x2603 $x3346
      $x2679 $x3289 $x2551 $x2512 $x3409 $x2619 $x2935 $x2589 $x2829 $x2974
      $x3303 $x3283 $x3434 $x3012 $x2911 $x2805 $x2456 $x3420 $x3445 $x2922
      $x2895 $x2299 $x3315 $x2447 $x3085 $x2925 $x2516)))
    (let (($x3244 (not $x3050))) (or $x3244 $x2830 $x3038))))))))))))))))))))))))))))))))))))))))))))))))))))))))))))))))))))))))))))))))))))))))))))))))))))))))))))))))))))))))))))))))))))))))))))))))))))))))))))))))))))))))))))))))))))))))))))))))))))))))))))))))))))))))))))))))))))))))))))))))))))))))))))))))))))))))))))))))))))))))))))))))))))))))))))))))))))))))))))))))))))))))))))))))))))))))))))))))))))))))))))))))))))))))))))
 (let (($x90 (and W_S2_V5 R_E1_V5)))
 (let (($x89 (and W_S2_V2 R_E1_V2)))
 (let (($x3435 (or $x89 $x90 R_E1_V4)))
 (let (($x3362 (not $x3435)))
 (let (($x2794 (= DISJ_W_S2_R_E1 $x3362)))
 (let (($x81 (and W_S2_V5 R_S2_V5)))
 (let (($x80 (and W_S2_V2 R_S2_V2)))
 (let (($x79 (and W_S2_V3 R_S2_V3)))
 (let (($x78 (and W_S2_V1 R_S2_V1)))
 (let (($x113 (or $x78 $x79 $x80 $x81 R_S2_V4)))
 (let (($x114 (not $x113)))
 (let (($x115 (= DISJ_W_S2_R_S2 $x114)))
 (let (($x72 (and W_S2_V5 R_S1_V5)))
 (let (($x71 (and W_S2_V2 R_S1_V2)))
 (let (($x70 (and W_S2_V3 R_S1_V3)))
 (let (($x69 (and W_S2_V1 R_S1_V1)))
 (let (($x110 (or $x69 $x70 $x71 $x72 R_S1_V4)))
 (let (($x111 (not $x110)))
 (let (($x112 (= DISJ_W_S2_R_S1 $x111)))
 (let (($x63 (and W_S1_V5 W_S2_V5)))
 (let (($x2682 (or W_S2_V3 $x63 W_S1_V4)))
 (let (($x3425 (not $x2682)))
 (let (($x3360 (= DISJ_W_S1_W_S2 $x3425)))
 (let (($x155 (not R_E1_V3)))
 (let (($x37 (and W_S1_V4 R_S2_V4)))
 (let (($x35 (and W_S1_V5 R_S2_V5)))
 (let (($x2987 (or R_S2_V3 $x35 $x37)))
 (let (($x3008 (not $x2987)))
 (let (($x2781 (= DISJ_W_S1_R_S2 $x3008)))
 (let (($x23 (and W_S1_V4 R_S1_V4)))
 (let (($x20 (and W_S1_V5 R_S1_V5)))
 (let (($x3304 (or R_S1_V3 $x20 $x23)))
 (let (($x3307 (not $x3304)))
 (let (($x2546 (= DISJ_W_S1_R_S1 $x3307)))
 (let (($x198 (not R_S1_V1)))
 (let (($x3875 (and $x198 DISJ_W_S1_R_S1)))
 (let (($x2387 (not W_S2_V2)))
 (let (($x2384 (not W_S2_V1)))
 (let (($x3644 (and $x2384 $x2387)))
 (let (($x3184 (and $x2387 DISJ_W_S2_R_S1 DISJ_W_S1_R_S1)))
 (let (($x3290 (or $x3184 $x3644 $x3875)))
 (let (($x2350 (not W_S1_V2)))
 (let (($x2301 (not W_S1_V1)))
 (let (($x153 (not R_E1_V1)))
 (and DISJ_W_S1_R_E1 $x153 $x2301 $x2350 $x3290 W_S1_V3 W_S2_V4 $x2546 $x2781
 $x155 $x3360 $x112 $x115 $x2794 $x3432 $x3418 $x3006)))))))))))))))))))))))))))))))))))))))))))))))))))
(assert (let (($x3927 (and DISJ_W_S2_R_S1 DISJ_W_S2_R_S2))) (not $x3927)))
(check-sat)
(exit)

